NAME: random-6-19405
TYPE: TSP
COMMENT: size=6 seed=19405
DIMENSION: 14
EDGE_WEIGHT_TYPE: EUC_2D
NODE_COORD_SECTION
+0 835 701
-0 835 701
+1 964 704
-1 256 659
+2 708 506
-2 873 712
+3 32 520
-3 796 849
+4 554 842
-4 520 701
+5 368 523
-5 582 0
+6 707 290
-6 847 807
PRECEDENCE_SECTION
+0 -0
+1 -1
+2 -2
+3 -3
+4 -4
+5 -5
+6 -6
EOF
